50	100	100	100
28	76	75
6	93	78
34	94	70
9	71	66
41	74	83
11	83	74
5	90	77
26	71	89
16	94	69
22	73	88
30	92	78
32	73	70
21	71	88
42	95	67
5	83	68
31	82	81
6	87	86
28	80	95
25	82	85
12	70	88
6	75	77
19	77	78
19	86	92
22	66	98
32	91	77
18	67	76
26	67	81
4	95	72
23	96	94
19	81	84
17	95	89
3	91	75
33	70	73
24	93	70
43	66	72
30	93	81
7	84	72
22	70	75
40	75	89
12	74	84
49	67	90
22	93	93
10	67	93
12	68	71
12	77	88
24	72	86
48	89	69
38	98	74
28	79	98
48	80	81
